/* Objective function */

min: 34x11 + 26x12 + 29x13 + 31x14
   + 42x21 + 33x22 + 28x23 + 35x24
   + 36x31 + 29x32 + 32x33 + 38x34;

x11 + x12 + x13 + x14 <= 400 + y1;
x21 + x22 + x23 + x24 <= 350 + y2;
x31 + x32 + x33 + x34 <= 500 + y3;

x11 + x21 + x31 = 275;
x12 + x22 + x32 = 375;
x13 + x23 + x33 = 350;
x14 + x24 + x34 = 325;

y1 <= 56;
y2 <= 56;
y3 <= 56;

y1 + y2 + y3 = 75;

x11 >= 0; x12 >= 0; x13 >= 0; x14 >= 0;
x21 >= 0; x22 >= 0; x23 >= 0; x24 >= 0;
x31 >= 0; x32 >= 0; x33 >= 0; x34 >= 0;
y1 >= 0; y2 >= 0; y3 >= 0;
